100
1000
364
343
340
389
322
345
347
383
336
322
385
339
382
316
354
366
322
381
314
333
369
382
306
383
307
345
318
365
383
388
380
303
361
318
340
333
389
340
376
383
317
398
399
381
361
316
320
334
335
321
341
383
301
311
362
385
328
313
335
359
360
331
308
336
319
390
382
324
300
340
372
371
359
361
390
355
309
308
338
397
354
310
398
372
301
340
392
326
379
353
331
372
386
355
303
331
350
351
317
321
